Pd Te                                   
1.0
        6.1491870880         0.0000000000         0.0000000000
        0.0000000000         6.1491870880         0.0000000000
        0.0000000000         0.0000000000        20.8360500336
   Pd   Te
   22    5
Cartesian
     0.000000000         0.000000000         2.394062157
     1.229837436         2.459674872         2.394062157
     2.459674872         4.919349744         2.394062157
     3.689512399         1.229837436         2.394062157
     4.919349744         3.689512399         2.394062157
     0.001641833         6.141992665         6.485595659
     1.179094284         2.413223945         6.520621059
     2.421789704         4.958569228         6.527392657
     3.730195399         1.168529983         6.519433158
     4.968825927         3.721408079         6.526767348
     0.615681217         4.304683054         0.448725175
     1.845518562         0.615170838         0.448725175
     3.075355906         3.074845710         0.448725175
     4.305193617         5.534520398         0.448725175
     5.535030961         1.845008182         0.448725175
     0.605147658         4.297132007         4.452018017
     1.848433313         0.600406629         4.451247092
     3.074698002         3.072183124         4.443704259
     4.301663661         5.539452293         4.450455365
     5.543430502         1.844540869         4.450288636
     3.070737936         3.170416196        12.424494533
     6.146512224         0.101443134        12.429662184
     3.074722559         3.051005226         8.171128065
     2.314160523         5.537619693        11.484622807
     0.753515229         2.464182153        13.375264154
     3.819333823         0.799492703        13.354178745
     5.398568193         3.881717379        11.505625006
