Pd Te                                   
1.0
        6.1491870880         0.0000000000         0.0000000000
        0.0000000000         6.1491870880         0.0000000000
        0.0000000000         0.0000000000        20.8360500336
   Pd   Te
   22    4
Cartesian
     0.000000000         0.000000000         2.394062157
     1.229837436         2.459674872         2.394062157
     2.459674872         4.919349744         2.394062157
     3.689512399         1.229837436         2.394062157
     4.919349744         3.689512399         2.394062157
     6.126580861         6.108880138         6.491524611
     1.203278289         2.489749496         6.483663223
     2.398656054         5.028548913         6.598619561
     3.671762197         1.245997949         6.546425163
     4.866259305         3.708832041         6.699314248
     0.615681217         4.304683054         0.448725175
     1.845518562         0.615170838         0.448725175
     3.075355906         3.074845710         0.448725175
     4.305193617         5.534520398         0.448725175
     5.535030961         1.845008182         0.448725175
     0.574490267         4.329275821         4.458215846
     1.857980978         0.622174762         4.450547888
     3.068061056         3.102620604         4.467617842
     4.274133603         5.529785692         4.478984564
     5.523104030         1.852941510         4.442390923
     3.277999745         0.615420438         9.264278840
     0.372590510         4.453312824         8.854401246
     2.809466639         3.248878989         8.450402305
     1.351437264         5.843595447        10.905685639
     4.654550325         5.059649244        10.735025223
     5.674270485         1.632162073         8.401973426
